//Dat File

outFile="MPVSBPP_SET1_IT200_ITV2_NT1_TS3_WT1_VT1_REP2";
m=200;
o=42;
p=3;
numVTypes=1;

demand = [4, 3, 2, 11, 2, 10, 3, 1, 2, 2, 1, 2, 1, 6, 9, 9, 3, 11, 5, 10, 9, 11, 9, 9, 7, 10, 1, 1, 11, 10, 6, 10, 5, 2, 3, 6, 6, 7, 8, 4, 2, 3, 6, 10, 5, 7, 5, 1, 9, 8, 6, 9, 11, 2, 3, 2, 2, 6, 8, 7, 9, 9, 11, 11, 11, 4, 10, 9, 3, 2, 5, 11, 3, 5, 6, 5, 8, 9, 5, 6, 4, 2, 11, 3, 1, 2, 9, 5, 10, 1, 4, 3, 6, 6, 5, 11, 3, 3, 5, 8, 15, 14, 19, 13, 16, 15, 12, 15, 13, 14, 15, 19, 15, 13, 19, 17, 17, 18, 15, 19, 19, 15, 17, 18, 13, 16, 19, 18, 15, 17, 18, 12, 12, 13, 12, 12, 12, 18, 18, 13, 14, 19, 13, 14, 16, 13, 18, 16, 13, 16, 15, 18, 19, 13, 13, 14, 14, 16, 18, 14, 17, 19, 19, 14, 19, 18, 13, 14, 14, 18, 13, 16, 16, 15, 14, 18, 16, 17, 13, 18, 19, 16, 17, 13, 16, 13, 16, 12, 19, 19, 18, 18, 14, 19, 18, 13, 13, 12, 19, 18];
Depot_Cap = [30000, 30000, 30000];
Tarif = [10, 3, 7];
VeicVolume = [100];
VeicCost = [100];
VeicType = [1, 1, 1, 1, 1, 1, 1, 1, 1, 1, 1, 1, 1, 1, 1, 1, 1, 1, 1, 1, 1, 1, 1, 1, 1, 1, 1, 1, 1, 1, 1, 1, 1, 1, 1, 1, 1, 1, 1, 1, 1, 1];
Elect_vehicle = [[70, 100, 30], [70, 100, 30], [70, 100, 30], [70, 100, 30], [70, 100, 30], [70, 100, 30], [70, 100, 30], [70, 100, 30], [70, 100, 30], [70, 100, 30], [70, 100, 30], [70, 100, 30], [70, 100, 30], [70, 100, 30], [70, 100, 30], [70, 100, 30], [70, 100, 30], [70, 100, 30], [70, 100, 30], [70, 100, 30], [70, 100, 30], [70, 100, 30], [70, 100, 30], [70, 100, 30], [70, 100, 30], [70, 100, 30], [70, 100, 30], [70, 100, 30], [70, 100, 30], [70, 100, 30], [70, 100, 30], [70, 100, 30], [70, 100, 30], [70, 100, 30], [70, 100, 30], [70, 100, 30], [70, 100, 30], [70, 100, 30], [70, 100, 30], [70, 100, 30], [70, 100, 30], [70, 100, 30]];